%%%%%%%%%%%%%%%%%%%%%%%%%%%%%%         %%%%%%%%%%%%%%%%%%%%%%%%%%%%%%          
%         o        =         %         %         o        =         %          
%  n.1.1  p        =  n.1.3  %         %  n.3.1  p        =  n.3.3  %          
%  n2.1.1 %  n.1.2 =  n2.2.1 %         %  n2.1.1 %  n.3.2 =  n2.2.1 %          
%         1        =         %         %         3        =         %          
%% op2.1 %%%%%%%%%%%% op2.2 %%%%%%%%%%%%% op2.3 %%%%%%%%%%%% op2.4 %%
%         %        %         o         =         %        %         o
%  n2.1.2 %        %  n2.2.2 p         =  n2.3.2 %        %  n2.4.2 p
%         %        %  n.9.1  %  n.9.2  =         %        %         %
%         %        %         9         =         %        %         9
%%=======%%%%%%%%%%%%=======%%%%%%%%%%%%%=======%%%%%%%%%%%%=======%%
%         %        %         %         %         %        %         %          
%  n2.1.3 %        %  n2.2.3 %         %  n2.3.3 %        %  n2.4.3 %          
%         %        %         %         %         %        %         %          
%         %        %         %         %         %        %         %          
%%%%%%%%%%%%%%%%%%%%%%%%%%%%%%         %%%%%%%%%%%%%%%%%%%%%%%%%%%%%%          
%         o        =         %         %         o        =         %          
%  n.2.1  p  n.2.2 =  n.2.3  %         %  n.4.1  p  n.4.2 =  n.4.3  %          
%  n2.1.4 % n.11.1 =  n2.2.4 %         %  n2.3.4 % n.12.1 =  n2.4.4 %          
%         2        =         %         %         4        =         %          
%%%%%%%%%%%%op.11 %%%%%%%%%%%%         %%%%%%%%%%%%op.12 %%%%%%%%%%%%          
          %        %                             %        %
          %        %                             %        %
          % n.11.2 %                             % n.12.2
          %        %                             %
       %%%%%======%%%%%%%%%%%%          %%%%%%%%%%%===
%         o        =         %          %        o
%         p n.11.3 =  n.5.3  %          %
%            n.5.2 =  n2.6.1 %
%                  =


number = array2d(1..12,1..3,[
  
  _,_,_,
  _,_,_,
  _,0,_,
  _,_,_,
  _,_,_,
  _,_,_,
  _,_,_,
  _,_,_,
  _,_,_,
  _,_,_,
  _,_,_,
  _,_,_
  
]);

operation = array1d(1..12,[
  _,
  _,
  _,
  _,
  _,
  0,
  _,
  _,
  _,
  _,
  _,
  _
]);



number2 = array2d(1..8,1..4,[
  
  _,_,_,_,
  _,_,_,_,
  _,_,_,_,
  _,_,_,_,
  _,_,0,_,
  _,_,_,_,
  _,_,_,_,
  _,_,_,_
  
]);

operation2 = array1d(1..8,[
  _,
  _,
  _,
  _,
  0,
  _,
  _,
  _
]);